data/solutions/planning/wellformed/moderate/weighting/wellformed_moderate_instance91_cplex.sol
Elapsed time: 0.4
Nodes explored: 1837
Nodes left: 0
Relative gap: 0.0
Upper bound: 30414.0
Lower bound: 30414
C[0]=483.0
C[1]=483.0
C[2]=482.0
C[3]=482.0
C[4]=482.0
C[5]=482.0
y[0]=3
y[1]=2
y[2]=4
y[3]=4
y[4]=1
y[5]=5
y[6]=2
y[7]=4
y[8]=3
y[9]=3
y[10]=3
y[11]=3
y[12]=0
y[13]=1
y[14]=2
y[15]=0
y[16]=1
y[17]=5
y[18]=2
y[19]=3
y[20]=1
y[21]=5
y[22]=1
y[23]=0
y[24]=4
y[25]=0
y[26]=1
y[27]=5
y[28]=0
y[29]=5
y[30]=1
y[31]=1
y[32]=3
y[33]=0
y[34]=5
y[35]=3
y[36]=4
y[37]=0
y[38]=4
y[39]=1
y[40]=0
y[41]=2
y[42]=2
y[43]=0
y[44]=2
y[45]=2
y[46]=4
y[47]=5
y[48]=4
y[49]=0
